19
6
0 9 16 3 17 12 2 7 10 13 4 6 14 1 11
3 18 5 16 1 15 2 4 0 6 8
16 10 17 15 18 5 7 0 12 8 13 3 2
3 9 10 14 13 2 0 4 15 5 11 7 8 16 1 12 18 6 17
9 8 17 13 4 6 5 12 10 1 3 11
12 1 18 16 17 7 9 6 4 14 2 10 3 8 11 13
